p edge 31 91
e 1 2
e 1 6
e 1 11
e 1 13
e 1 16
e 1 24
e 2 3
e 2 4
e 2 7
e 2 8
e 2 9
e 2 11
e 2 20
e 2 21
e 2 22
e 2 24
e 2 26
e 2 31
e 3 7
e 3 8
e 3 9
e 3 14
e 3 15
e 3 18
e 3 21
e 3 24
e 3 25
e 4 13
e 4 16
e 4 22
e 4 24
e 4 27
e 5 8
e 5 10
e 5 11
e 5 15
e 5 17
e 5 23
e 5 25
e 5 30
e 6 10
e 6 14
e 6 18
e 6 20
e 6 26
e 6 30
e 7 8
e 7 9
e 7 12
e 7 18
e 7 24
e 7 25
e 7 29
e 8 9
e 8 22
e 8 24
e 9 14
e 9 18
e 9 24
e 9 26
e 10 15
e 10 16
e 10 20
e 10 29
e 11 17
e 11 19
e 12 17
e 13 24
e 14 26
e 14 30
e 15 27
e 15 30
e 15 31
e 16 18
e 16 20
e 16 22
e 16 25
e 16 29
e 17 25
e 18 29
e 19 22
e 19 24
e 19 26
e 20 27
e 20 29
e 21 26
e 22 24
e 22 25
e 22 31
e 23 28
e 25 31
